Route #1: 40 13 4 6 19 16 30 43 46
Route #2: 62 25 47 28 42 9 10 17 8 34 56 24 55
Route #3: 
Route #4: 
Route #5: 53 39 14 27 5 21 33 29
Route #6: 37 31
Route #7: 
Route #8: 12 51 45 22 57 50 2 23 35 58 52 32 59 48
Route #9: 26 15 54 38 61 36 7 3
Route #10: 1 18 41 44 11 20 60 63 49
cost 1911.579803168629
